c ren 1 -> 1
c ren 2 -> 2
c ren 4 -> 3
c ren 9 -> 4
c ren 10 -> 5
c ren 12 -> 6
c ren 17 -> 7
c ren 18 -> 8
c ren 19 -> 9
c ren 21 -> 10
c ren 26 -> 11
c ren 29 -> 12
c ren 30 -> 13
c ren 33 -> 14
c ren 35 -> 15
c ren 38 -> 16
c ren 41 -> 17
c ren 44 -> 18
c ren 45 -> 19
c ren 48 -> 20
c ren 51 -> 21
c ren 53 -> 22
c ren 56 -> 23
c ren 59 -> 24
c ren 60 -> 25
c ren 62 -> 26
c ren 64 -> 27
c ren 89 -> 28
c ren 96 -> 29
c ren 100 -> 30
c ren 122 -> 31
c ren 132 -> 32
p cnf 32 85
a 1 2 3 4 5 6 8 9 10 12 13 14 16 18 19 21 22 24 25 26 32 0
d 28 1 4 0
d 29 8 12 0
d 30 16 18 0
d 31 21 24 0
e 7 11 15 17 20 23 27 0
-2 7 9 10 -11 14 -15 -17 19 -20 22 -23 -25 -27 -28 0
2 3 5 6 7 9 10 -11 14 -15 -17 -20 22 -23 26 -27 28 -32 0
-1 2 3 4 -5 -7 0
-2 7 -11 -15 -17 -20 -23 -27 -28 -30 0
1 -2 4 -6 -7 0
-5 7 -11 -15 -17 -20 -23 -27 -29 0
2 3 5 6 7 9 10 -11 13 14 -15 -17 -20 -23 26 -27 -31 0
-6 7 -11 -15 -17 -20 -23 -27 -29 0
-5 7 -11 -15 -17 -20 -23 -27 31 0
-1 2 3 4 -6 -7 0
-6 7 -11 -15 -17 -20 -23 -27 31 0
8 -9 11 0
-2 8 11 0
2 3 -8 9 10 11 0
-2 7 -11 -15 -17 -20 -23 -27 -29 0
-2 7 -11 -15 -17 -20 -23 -27 31 0
2 3 5 6 7 9 10 -11 13 -14 -15 -17 -20 -23 -27 29 0
7 -11 -13 -15 -17 -20 -23 -27 -29 0
5 6 -12 13 -14 15 0
12 14 15 0
12 -13 15 0
13 14 -16 17 0
-14 16 17 0
-6 7 9 10 -11 14 -15 -17 19 -20 22 -23 26 -27 -28 -32 0
-5 7 9 10 -11 -13 -15 -17 -20 -23 -27 -28 0
9 10 -18 -19 20 0
-13 16 17 0
-2 7 9 10 -11 14 -15 -17 19 -20 22 -23 26 -27 -28 -32 0
-3 8 11 0
2 3 5 6 7 9 10 -11 13 14 -15 -17 -19 -20 -23 -27 30 0
7 -9 -11 -15 -17 -20 -23 -27 -29 0
19 -21 22 23 0
2 3 5 6 7 9 10 -11 13 14 -15 -17 -20 -22 -23 -27 -31 0
-24 25 -26 27 0
24 26 27 0
24 -25 27 0
7 -9 -11 -15 -17 -20 -23 -27 31 0
8 -10 11 0
-3 7 9 10 -11 14 -15 -17 19 -20 22 -23 -25 -27 -28 0
-2 7 9 10 -11 14 -15 -17 19 -20 22 -23 26 -27 -28 32 0
2 3 5 6 7 9 10 -11 -13 -15 -17 -20 -23 -27 28 0
7 -10 -11 -15 -17 -20 -23 -27 31 0
7 -10 -11 -15 -17 -20 -23 -27 -29 0
-6 12 15 0
-3 7 9 10 -11 14 -15 -17 19 -20 22 -23 26 -27 -28 -32 0
-3 7 -11 -15 -17 -20 -23 -27 31 0
2 3 5 6 7 9 10 -11 13 14 -15 -17 -19 -20 -23 -27 -31 0
-3 7 9 10 -11 14 -15 -17 19 -20 22 -23 26 -27 -28 32 0
-3 7 9 10 -11 -13 -15 -17 -20 -23 -27 -28 0
1 -3 -4 5 6 -7 0
1 -2 -4 5 6 -7 0
-6 7 9 10 -11 -13 -15 -17 -20 -23 -27 -28 0
-5 7 -11 -15 -17 -20 -23 -27 -28 -30 0
-2 7 9 10 -11 -13 -15 -17 -20 -23 -27 -28 0
2 3 5 6 7 9 10 -11 13 14 -15 -17 -20 -23 -25 -27 -31 0
2 3 5 6 7 9 10 -11 14 -15 -17 -20 22 -23 26 -27 28 32 0
7 -11 -14 -15 -17 -20 -23 -27 -28 -30 0
-1 2 3 -4 5 6 -7 0
2 3 5 6 7 9 10 -11 14 -15 -17 -20 22 -23 -25 -27 28 0
7 -11 -15 -17 19 -20 -23 -27 -28 -30 0
-6 7 9 10 -11 14 -15 -17 19 -20 22 -23 26 -27 -28 32 0
-5 12 15 0
-6 7 -11 -15 -17 -20 -23 -27 -28 -30 0
-5 7 9 10 -11 14 -15 -17 19 -20 22 -23 26 -27 -28 -32 0
18 19 20 0
7 -11 14 -15 -17 -20 -23 -27 -29 0
-5 7 9 10 -11 14 -15 -17 19 -20 22 -23 26 -27 -28 32 0
-3 7 -11 -15 -17 -20 -23 -27 -28 -30 0
1 -3 4 -5 -7 0
1 -3 4 -6 -7 0
7 -10 -11 -15 -17 -20 -23 -27 -28 -30 0
-6 7 9 10 -11 14 -15 -17 19 -20 22 -23 -25 -27 -28 0
2 3 5 6 7 9 10 -11 14 -15 -17 -19 -20 -23 -27 28 0
21 -22 23 0
-19 21 23 0
7 -11 -15 -17 19 -20 22 -23 25 -26 -27 31 0
-9 18 20 0
1 -2 4 -5 -7 0
7 -11 -14 -15 -17 -20 -23 -27 31 0
-3 7 -11 -15 -17 -20 -23 -27 -29 0
7 -9 -11 -15 -17 -20 -23 -27 -28 -30 0
7 -11 -13 -15 -17 -20 -23 -27 31 0
-10 18 20 0
-5 7 9 10 -11 14 -15 -17 19 -20 22 -23 -25 -27 -28 0
7 -11 -13 -15 -17 -20 -23 -27 -28 -30 0
